calculateOilPlan.sol
# Solution for model oilproblem
# Objective value = 27
I0(0) 0
I1(1) 3
I2(1) 0
I3(1) 4
I4(1) 0
I5(1) 0
I6(1) 0
I7(0) 0
I8(1) 0
I9(0) 0
I10(2) 0
I11(2) 0
I12(2) 3
I13(2) 0
I14(2) 0
I15(1) 0
I16(1) 0
I17(2) 0
I18(0) 0
I19(2) 2
I20(2) 0
I21(2) 0
I22(2) 0
I23(1) 0
I24(1) 0
I25(2) 0
I26(2) 0
I27(0) 0
I28(2) 0
I29(2) 5
I30(2) 1
I31(1) 0
I32(1) 0
I33(2) 0
I34(2) 2
I35(2) 0
I36(0) 0
I37(2) 0
I38(2) 0
I39(1) 1
I40(1) 0
I41(2) 0
I42(2) 0
I43(2) 0
I44(2) 0
I45(0) 0
I46(2) 0
I47(1) 5
I48(1) 0
I49(2) 0
I50(2) 0
I51(2) 0
I52(2) 0
I53(2) 0
I54(0) 0
I55(1) 1
I56(0) 0
I57(1) 0
I58(1) 0
I59(1) 0
I60(1) 0
I61(1) 0
I62(1) 0
I63(0) 0
