calculateOilPlan.log

Gurobi 7.5.2 (mac64, Java) logging started Tue Apr 17 19:01:29 2018

Academic license - for non-commercial use only
Optimize a model with 6 rows, 64 columns and 84 nonzeros
Variable types: 0 continuous, 64 integer (0 binary)
Coefficient statistics:
  Matrix range     [1e+00, 1e+00]
  Objective range  [1e+00, 1e+00]
  Bounds range     [1e+00, 8e+00]
  RHS range        [0e+00, 0e+00]
Found heuristic solution: objective -0.0000000
Presolve removed 2 rows and 54 columns
Presolve time: 0.00s
Presolved: 4 rows, 10 columns, 14 nonzeros
Variable types: 0 continuous, 10 integer (2 binary)

Root relaxation: objective 2.700000e+01, 5 iterations, 0.00 seconds

    Nodes    |    Current Node    |     Objective Bounds      |     Work
 Expl Unexpl |  Obj  Depth IntInf | Incumbent    BestBd   Gap | It/Node Time

*    0     0               0      27.0000000   27.00000  0.00%     -    0s

Explored 0 nodes (5 simplex iterations) in 0.01 seconds
Thread count was 4 (of 4 available processors)

Solution count 2: 27 -0 

Optimal solution found (tolerance 1.00e-04)
Best objective 2.700000000000e+01, best bound 2.700000000000e+01, gap 0.0000%
Warning: variable name "Transport 1to1" has a space
Warning: default variable names used to write solution file

Gurobi 7.5.2 (mac64, Java) logging started Tue Apr 17 19:02:26 2018

Academic license - for non-commercial use only
Optimize a model with 6 rows, 64 columns and 84 nonzeros
Variable types: 0 continuous, 64 integer (0 binary)
Coefficient statistics:
  Matrix range     [1e+00, 1e+00]
  Objective range  [1e+00, 1e+00]
  Bounds range     [1e+00, 8e+00]
  RHS range        [0e+00, 0e+00]
Found heuristic solution: objective -0.0000000
Presolve removed 2 rows and 54 columns
Presolve time: 0.00s
Presolved: 4 rows, 10 columns, 14 nonzeros
Variable types: 0 continuous, 10 integer (2 binary)

Root relaxation: objective 2.700000e+01, 5 iterations, 0.00 seconds

    Nodes    |    Current Node    |     Objective Bounds      |     Work
 Expl Unexpl |  Obj  Depth IntInf | Incumbent    BestBd   Gap | It/Node Time

*    0     0               0      27.0000000   27.00000  0.00%     -    0s

Explored 0 nodes (5 simplex iterations) in 0.00 seconds
Thread count was 4 (of 4 available processors)

Solution count 2: 27 -0 

Optimal solution found (tolerance 1.00e-04)
Best objective 2.700000000000e+01, best bound 2.700000000000e+01, gap 0.0000%
Warning: variable name "Transport 1to1" has a space
Warning: default variable names used to write solution file

Gurobi 7.5.2 (mac64, Java) logging started Tue Apr 17 19:02:36 2018

Academic license - for non-commercial use only
Optimize a model with 6 rows, 64 columns and 84 nonzeros
Variable types: 0 continuous, 64 integer (0 binary)
Coefficient statistics:
  Matrix range     [1e+00, 1e+00]
  Objective range  [1e+00, 1e+00]
  Bounds range     [1e+00, 8e+00]
  RHS range        [0e+00, 0e+00]
Found heuristic solution: objective -0.0000000
Presolve removed 2 rows and 54 columns
Presolve time: 0.00s
Presolved: 4 rows, 10 columns, 14 nonzeros
Variable types: 0 continuous, 10 integer (2 binary)

Root relaxation: objective 2.700000e+01, 5 iterations, 0.00 seconds

    Nodes    |    Current Node    |     Objective Bounds      |     Work
 Expl Unexpl |  Obj  Depth IntInf | Incumbent    BestBd   Gap | It/Node Time

*    0     0               0      27.0000000   27.00000  0.00%     -    0s

Explored 0 nodes (5 simplex iterations) in 0.00 seconds
Thread count was 4 (of 4 available processors)

Solution count 2: 27 -0 

Optimal solution found (tolerance 1.00e-04)
Best objective 2.700000000000e+01, best bound 2.700000000000e+01, gap 0.0000%
Warning: variable name "Transport 1to1" has a space
Warning: default variable names used to write solution file

Gurobi 7.5.2 (mac64, Java) logging started Thu Apr 26 10:50:22 2018

Academic license - for non-commercial use only
Optimize a model with 6 rows, 64 columns and 84 nonzeros
Variable types: 0 continuous, 64 integer (0 binary)
Coefficient statistics:
  Matrix range     [1e+00, 1e+00]
  Objective range  [1e+00, 1e+00]
  Bounds range     [1e+00, 8e+00]
  RHS range        [0e+00, 0e+00]
Found heuristic solution: objective -0.0000000
Presolve removed 2 rows and 54 columns
Presolve time: 0.00s
Presolved: 4 rows, 10 columns, 14 nonzeros
Variable types: 0 continuous, 10 integer (2 binary)

Root relaxation: objective 2.700000e+01, 5 iterations, 0.00 seconds

    Nodes    |    Current Node    |     Objective Bounds      |     Work
 Expl Unexpl |  Obj  Depth IntInf | Incumbent    BestBd   Gap | It/Node Time

*    0     0               0      27.0000000   27.00000  0.00%     -    0s

Explored 0 nodes (5 simplex iterations) in 0.00 seconds
Thread count was 4 (of 4 available processors)

Solution count 2: 27 -0 

Optimal solution found (tolerance 1.00e-04)
Best objective 2.700000000000e+01, best bound 2.700000000000e+01, gap 0.0000%
Warning: variable name "Transport 1to1" has a space
Warning: default variable names used to write solution file
